unsat
(:binary-propagations  18
 :conflicts            1
 :final-checks         1
 :max-generation       1
 :max-memory           27.76
 :memory               22.12
 :mk-bool-var          2600
 :mk-clause            775
 :mk-clause-binary     2003
 :num-allocs           72612973
 :num-checks           1
 :propagations         18
 :quant-instantiations 553
 :restarts             1
 :rlimit-count         489959
 :time                 0.09)
